c Result of efficient AIG-to-CNF conversion using package CNF
p cnf 662 2419
-2 3 588 -596 -597 0
-2 3 588 596 597 0
2 -588 0
2 596 -597 0
2 -3 0
2 -596 597 0
-3 -4 -323 587 0
-3 4 323 -586 0
-3 4 323 587 0
-3 -4 -323 -586 0
3 4 -323 0
3 -4 323 0
3 586 -587 0
4 5 321 -322 0
-4 -5 0
-4 322 0
-4 -321 0
-5 6 274 277 287 0
5 -287 0
5 -6 0
5 -274 0
5 -277 0
-6 7 172 209 215 0
6 -215 0
6 -209 0
6 -7 0
6 -172 0
7 625 -8 144 0
7 -625 144 -155 0
-7 -144 0
-7 -625 155 0
-7 625 8 0
8 -626 -115 0
8 626 -9 0
8 -626 -136 0
-8 626 9 0
-8 -626 115 136 0
-9 10 102 0
9 -10 0
9 -102 0
10 627 -11 0
10 -627 -82 0
-10 -627 82 0
-10 627 11 0
11 628 -12 0
11 -628 -64 0
-11 -628 64 0
-11 628 12 0
12 629 -13 0
12 -629 -44 0
-12 -629 44 0
-12 629 13 0
13 657 -14 29 0
13 -657 29 -39 0
-13 -29 0
-13 -657 39 0
-13 657 14 0
14 658 -15 0
14 -658 -22 0
-14 -658 22 0
-14 658 15 0
15 659 -16 0
15 -659 -19 0
-15 -659 19 0
-15 659 16 0
16 660 -17 0
16 -660 -18 0
-16 -660 18 0
-16 660 17 0
17 -641 -661 0
17 -640 661 0
-17 640 661 0
-17 641 -661 0
18 -643 -661 0
18 -642 661 0
-18 642 661 0
-18 643 -661 0
19 660 -20 0
19 -660 -21 0
-19 -660 21 0
-19 660 20 0
20 -645 -661 0
20 -644 661 0
-20 644 661 0
-20 645 -661 0
21 -647 -661 0
21 -646 661 0
-21 646 661 0
-21 647 -661 0
22 659 -23 0
22 -659 -26 0
-22 -659 26 0
-22 659 23 0
23 660 -24 0
23 -660 -25 0
-23 -660 25 0
-23 660 24 0
24 -649 -661 0
24 -648 661 0
-24 648 661 0
-24 649 -661 0
25 -651 -661 0
25 -650 661 0
-25 650 661 0
-25 651 -661 0
26 660 -27 0
26 -660 -28 0
-26 -660 28 0
-26 660 27 0
27 -653 -661 0
27 -652 661 0
-27 652 661 0
-27 653 -661 0
28 -655 -661 0
28 -654 661 0
-28 654 661 0
-28 655 -661 0
-29 646 30 35 37 0
29 -646 0
29 -37 0
29 -35 0
29 -30 0
-30 634 635 31 32 0
30 -634 0
30 -32 0
30 -31 0
30 -635 0
-31 638 639 640 648 0
31 -648 0
31 -640 0
31 -638 0
31 -639 0
-32 649 650 654 33 0
32 -33 0
32 -654 0
32 -649 0
32 -650 0
-33 630 655 656 34 0
33 -34 0
33 -656 0
33 -630 0
33 -655 0
-34 631 632 0
34 -631 0
34 -632 0
-35 636 637 647 36 0
35 -36 0
35 -647 0
35 -636 0
35 -637 0
-36 644 652 0
36 -644 0
36 -652 0
-37 645 651 653 38 0
37 -38 0
37 -653 0
37 -645 0
37 -651 0
-38 633 641 642 643 0
38 -643 0
38 -642 0
38 -633 0
38 -641 0
39 658 -40 0
-39 -658 0
-39 40 0
40 659 -41 0
40 -659 660 -661 0
-40 -659 -660 0
-40 659 41 0
-40 -659 661 0
41 660 -42 0
41 -660 -43 0
-41 -660 43 0
-41 660 42 0
42 -657 -661 0
42 -656 661 0
-42 656 661 0
-42 657 -661 0
43 -659 -661 0
43 -658 661 0
-43 658 661 0
-43 659 -661 0
44 -657 29 -60 0
44 657 29 -45 0
-44 -29 0
-44 -657 60 0
-44 657 45 0
45 658 -46 0
45 -658 -53 0
-45 -658 53 0
-45 658 46 0
46 659 -47 0
46 -659 -50 0
-46 -659 50 0
-46 659 47 0
47 660 -48 0
47 -660 -49 0
-47 -660 49 0
-47 660 48 0
48 -642 -661 0
48 -641 661 0
-48 641 661 0
-48 642 -661 0
49 -644 -661 0
49 -643 661 0
-49 643 661 0
-49 644 -661 0
50 660 -51 0
50 -660 -52 0
-50 -660 52 0
-50 660 51 0
51 -646 -661 0
51 -645 661 0
-51 645 661 0
-51 646 -661 0
52 -648 -661 0
52 -647 661 0
-52 647 661 0
-52 648 -661 0
53 659 -54 0
53 -659 -57 0
-53 -659 57 0
-53 659 54 0
54 660 -55 0
54 -660 -56 0
-54 -660 56 0
-54 660 55 0
55 -650 -661 0
55 -649 661 0
-55 649 661 0
-55 650 -661 0
56 -652 -661 0
56 -651 661 0
-56 651 661 0
-56 652 -661 0
57 660 -58 0
57 -660 -59 0
-57 -660 59 0
-57 660 58 0
58 -654 -661 0
58 -653 661 0
-58 653 661 0
-58 654 -661 0
59 -656 -661 0
59 -655 661 0
-59 655 661 0
-59 656 -661 0
60 658 -61 0
-60 -658 0
-60 61 0
61 659 -62 0
-61 -659 0
-61 62 0
62 -659 -660 0
62 660 -63 0
62 -660 -661 0
-62 660 63 0
-62 659 -660 661 0
63 -658 -661 0
63 -657 661 0
-63 657 661 0
-63 658 -661 0
64 629 -65 0
64 -629 -74 0
-64 -629 74 0
-64 629 65 0
65 -657 29 -73 0
65 657 29 -66 0
-65 -29 0
-65 -657 73 0
-65 657 66 0
66 658 -67 0
66 -658 -70 0
-66 -658 70 0
-66 658 67 0
67 659 -68 0
67 -659 -69 0
-67 -659 69 0
-67 659 68 0
68 660 -18 0
68 -660 -20 0
-68 -660 20 0
-68 660 18 0
69 660 -21 0
69 -660 -24 0
-69 -660 24 0
-69 660 21 0
70 659 -71 0
70 -659 -72 0
-70 -659 72 0
-70 659 71 0
71 660 -25 0
71 -660 -27 0
-71 -660 27 0
-71 660 25 0
72 660 -28 0
72 -660 -42 0
-72 -660 42 0
-72 660 28 0
73 658 659 -660 0
-73 660 0
-73 -659 0
-73 -658 0
74 658 75 -79 0
74 -658 75 -76 0
-74 -75 0
-74 -658 76 0
-74 658 79 0
-75 657 29 0
75 -657 0
75 -29 0
76 659 -77 0
76 -659 -78 0
-76 -659 78 0
-76 659 77 0
77 660 -56 0
77 -660 -58 0
-77 -660 58 0
-77 660 56 0
78 660 -59 0
78 -660 -63 0
-78 -660 63 0
-78 660 59 0
79 659 -80 0
79 -659 -81 0
-79 -659 81 0
-79 659 80 0
80 660 -49 0
80 -660 -51 0
-80 -660 51 0
-80 660 49 0
81 660 -52 0
81 -660 -55 0
-81 -660 55 0
-81 660 52 0
82 628 -83 0
82 -628 -92 0
-82 -628 92 0
-82 628 83 0
83 629 -84 0
83 -629 -89 0
-83 -629 89 0
-83 629 84 0
84 -657 29 -88 0
84 657 29 -85 0
-84 -29 0
-84 -657 88 0
-84 657 85 0
85 658 -86 0
85 -658 -87 0
-85 -658 87 0
-85 658 86 0
86 659 -19 0
86 -659 -23 0
-86 -659 23 0
-86 659 19 0
87 659 -26 0
87 -659 -41 0
-87 -659 41 0
-87 659 26 0
88 658 659 660 -661 0
-88 661 0
-88 -660 0
-88 -658 0
-88 -659 0
89 658 75 -91 0
89 -658 75 -90 0
-89 -75 0
-89 -658 90 0
-89 658 91 0
90 -659 -660 0
90 659 -57 0
90 -659 -63 0
-90 659 57 0
-90 -659 660 63 0
91 659 -50 0
91 -659 -54 0
-91 -659 54 0
-91 659 50 0
92 629 -93 0
92 -629 -98 0
-92 -629 98 0
-92 629 93 0
93 75 -94 0
-93 -75 0
-93 94 0
94 658 -95 0
94 -658 -96 0
-94 -658 96 0
-94 658 95 0
95 659 -69 0
95 -659 -71 0
-95 -659 71 0
-95 659 69 0
96 659 -72 0
96 -659 -97 0
-96 -659 97 0
-96 659 72 0
-97 659 660 -661 0
-97 658 660 661 0
97 -660 0
97 -658 661 0
97 -659 -661 0
98 75 -99 0
-98 -75 0
-98 99 0
99 658 -100 0
99 -658 -101 0
-99 -658 101 0
-99 658 100 0
100 -659 -77 0
100 659 -81 0
-100 659 81 0
-100 -659 77 0
-101 -659 -660 0
-101 659 78 0
-101 -659 -661 0
101 659 -78 0
101 -659 660 661 0
102 627 -103 0
102 -627 -112 0
-102 -627 112 0
-102 627 103 0
103 628 -104 0
103 -628 -111 0
-103 -628 111 0
-103 628 104 0
104 -629 -13 0
104 629 -105 0
-104 629 105 0
-104 -629 13 0
105 -657 29 -110 0
105 657 29 -106 0
-105 -29 0
-105 -657 110 0
-105 657 106 0
106 -658 -100 0
106 658 -107 0
-106 658 107 0
-106 -658 100 0
107 -659 -80 0
107 659 -108 0
-107 659 108 0
-107 -659 80 0
108 -660 -48 0
108 660 -109 0
-108 660 109 0
-108 -660 48 0
109 -640 -661 0
109 -639 661 0
-109 639 661 0
-109 640 -661 0
110 658 -101 0
-110 -658 0
-110 101 0
111 629 -44 0
111 -629 -65 0
-111 -629 65 0
-111 629 44 0
112 628 -113 0
112 -628 -114 0
-112 -628 114 0
-112 628 113 0
113 629 -74 0
113 -629 -84 0
-113 -629 84 0
-113 629 74 0
114 629 -89 0
114 -629 -93 0
-114 -629 93 0
-114 629 89 0
115 627 -116 0
115 -627 -126 0
-115 -627 126 0
-115 627 116 0
116 628 -117 0
116 -628 -120 0
-116 -628 120 0
-116 628 117 0
117 629 -98 0
117 -629 -118 0
-117 -629 118 0
-117 629 98 0
118 75 -119 0
-118 -75 0
-118 119 0
119 658 -22 0
119 -658 -40 0
-119 -658 40 0
-119 658 22 0
120 629 -121 0
120 -629 -123 0
-120 -629 123 0
-120 629 121 0
121 75 -122 0
-121 -75 0
-121 122 0
122 658 -53 0
122 -658 -61 0
-122 -658 61 0
-122 658 53 0
123 75 -124 0
-123 -75 0
-123 124 0
124 658 -70 0
124 -658 -125 0
-124 -658 125 0
-124 658 70 0
125 659 -660 0
125 -658 659 661 0
-125 -659 0
-125 660 -661 0
-125 658 660 0
126 628 -127 0
126 -628 -131 0
-126 -628 131 0
-126 628 127 0
127 -629 -128 0
-127 629 0
-127 128 0
128 75 -129 0
-128 -75 0
-128 129 0
129 658 -87 0
129 -658 -130 0
-129 -658 130 0
-129 658 87 0
130 659 660 -661 0
-130 661 0
-130 -660 0
-130 -659 0
131 629 -132 0
131 -629 -134 0
-131 -629 134 0
-131 629 132 0
132 75 -133 0
-132 -75 0
-132 133 0
133 658 -90 0
-133 -658 0
-133 90 0
134 75 -135 0
-134 -75 0
-134 135 0
135 658 -96 0
-135 -658 0
-135 96 0
136 627 -137 0
136 -627 -140 0
-136 -627 140 0
-136 627 137 0
137 628 -138 0
137 -628 -139 0
-137 -628 139 0
-137 628 138 0
138 629 -118 0
138 -629 -121 0
-138 -629 121 0
-138 629 118 0
139 629 -123 0
-139 -629 0
-139 123 0
140 628 -141 0
140 -628 -142 0
-140 -628 142 0
-140 628 141 0
141 629 -128 0
141 -629 -132 0
-141 -629 132 0
-141 629 128 0
142 629 -134 0
142 -629 -143 0
-142 -629 143 0
-142 629 134 0
143 75 -110 0
-143 -75 0
-143 110 0
-144 145 151 153 154 0
144 -154 0
144 -145 0
144 -153 0
144 -151 0
-145 622 623 146 148 0
145 -622 0
145 -148 0
145 -146 0
145 -623 0
-146 614 620 621 147 0
146 -147 0
146 -621 0
146 -614 0
146 -620 0
-147 618 619 624 0
147 -618 0
147 -624 0
147 -619 0
-148 610 611 149 150 0
148 -610 0
148 -150 0
148 -149 0
148 -611 0
-149 615 616 617 0
149 -615 0
149 -617 0
149 -616 0
-150 606 607 612 613 0
150 -613 0
150 -612 0
150 -606 0
150 -607 0
-151 604 608 609 152 0
151 -152 0
151 -609 0
151 -604 0
151 -608 0
-152 602 603 0
152 -602 0
152 -603 0
-153 598 605 0
153 -598 0
153 -605 0
-154 599 600 601 0
154 -599 0
154 -601 0
154 -600 0
155 626 -156 0
155 626 -166 0
-155 -626 0
-155 156 166 0
156 627 -157 0
156 -627 -163 0
-156 -627 163 0
-156 627 157 0
157 628 -158 0
157 -628 -160 0
-157 -628 160 0
-157 628 158 0
158 629 -143 0
158 -629 -159 0
-158 -629 159 0
-158 629 143 0
159 -39 75 0
-159 39 0
-159 -75 0
160 629 -161 0
160 -629 -162 0
-160 -629 162 0
-160 629 161 0
161 -60 75 0
-161 60 0
-161 -75 0
162 658 659 -660 75 0
-162 -658 0
-162 -75 0
-162 660 0
-162 -659 0
163 628 -164 0
-163 -628 0
-163 164 0
164 -629 -165 0
-164 629 0
-164 165 0
165 75 -88 0
-165 -75 0
-165 88 0
166 627 -167 0
166 -627 -170 0
-166 -627 170 0
-166 627 167 0
167 628 -168 0
167 -628 -169 0
-167 -628 169 0
-167 628 168 0
168 629 -159 0
168 -629 -161 0
-168 -629 161 0
-168 629 159 0
169 629 -162 0
-169 -629 0
-169 162 0
170 628 -171 0
-170 -628 0
-170 171 0
171 629 -165 0
-171 -629 0
-171 165 0
172 -625 144 -205 0
172 625 144 -173 0
-172 -144 0
-172 -625 205 0
-172 625 173 0
173 626 -174 0
173 -626 -204 0
173 -626 -203 0
-173 626 174 0
-173 -626 203 204 0
174 -627 -11 0
174 627 -175 0
174 -627 -103 0
-174 627 175 0
-174 -627 11 103 0
-175 176 194 0
175 -176 0
175 -194 0
176 628 -177 0
176 -628 -189 0
-176 -628 189 0
-176 628 177 0
177 629 -178 0
177 -629 -184 0
-177 -629 184 0
-177 629 178 0
178 657 29 -179 0
178 -657 29 -129 0
-178 -29 0
-178 657 179 0
-178 -657 129 0
-179 -658 86 0
-179 658 180 0
179 -658 -86 0
179 658 -180 0
-180 659 181 0
-180 -659 16 0
180 -659 -16 0
180 659 -181 0
181 660 -182 0
181 -660 -183 0
-181 -660 183 0
-181 660 182 0
182 -637 -661 0
182 -636 661 0
-182 636 661 0
-182 637 -661 0
183 -639 -661 0
183 -638 661 0
-183 638 661 0
-183 639 -661 0
184 657 29 -185 0
184 -657 29 -133 0
-184 -29 0
-184 -657 133 0
-184 657 185 0
185 -658 -91 0
185 658 -186 0
-185 658 186 0
-185 -658 91 0
186 -659 -47 0
186 659 -187 0
-186 659 187 0
-186 -659 47 0
187 -660 -109 0
187 660 -188 0
-187 660 188 0
-187 -660 109 0
188 -638 -661 0
188 -637 661 0
-188 637 661 0
-188 638 -661 0
189 -629 -105 0
189 629 -190 0
-189 629 190 0
-189 -629 105 0
190 657 29 -191 0
190 -657 29 -135 0
-190 -29 0
-190 -657 135 0
-190 657 191 0
191 -658 -95 0
191 658 -192 0
-191 658 192 0
-191 -658 95 0
192 -659 -68 0
192 659 -193 0
-192 659 193 0
-192 -659 68 0
193 -660 -17 0
193 660 -183 0
-193 660 183 0
-193 -660 17 0
194 628 -195 0
194 -628 -202 0
-194 -628 202 0
-194 628 195 0
195 -629 -178 0
195 629 -196 0
-195 629 196 0
-195 -629 178 0
196 -657 29 -201 0
196 657 29 -197 0
-196 -29 0
-196 -657 201 0
-196 657 197 0
197 -658 -79 0
197 658 -198 0
-197 658 198 0
-197 -658 79 0
198 -659 -108 0
198 659 -199 0
-198 659 199 0
-198 -659 108 0
199 -660 -188 0
199 660 -200 0
-199 660 200 0
-199 -660 188 0
200 -636 -661 0
200 -635 661 0
-200 635 661 0
-200 636 -661 0
201 658 -76 0
-201 -658 0
-201 76 0
202 629 -184 0
202 -629 -190 0
-202 -629 190 0
-202 629 184 0
203 627 -82 0
203 -627 -137 0
-203 -627 137 0
-203 627 82 0
204 627 -112 0
204 -627 -116 0
-204 -627 116 0
-204 627 112 0
205 626 -206 0
205 -626 -208 0
205 626 -207 0
-205 -626 208 0
-205 626 206 207 0
206 627 -140 0
206 -627 -167 0
-206 -627 167 0
-206 627 140 0
207 627 -126 0
207 -627 -157 0
-207 -627 157 0
-207 627 126 0
-208 165 0
-208 -628 0
-208 -627 0
208 627 628 -165 0
209 -210 214 0
-209 210 0
-209 -214 0
210 626 -211 0
-210 -626 0
-210 211 0
211 627 -212 0
211 -627 -213 0
-211 -627 213 0
-211 627 212 0
212 628 -142 0
212 -628 -168 0
-212 -628 168 0
-212 628 142 0
213 628 -169 0
213 -628 -171 0
-213 -628 171 0
-213 628 169 0
-214 625 144 0
214 -625 0
214 -144 0
-215 -144 227 267 0
-215 216 227 267 0
215 -267 0
215 -227 0
215 144 -216 0
-216 625 217 0
-216 -625 224 0
216 -625 -224 0
216 625 -217 0
-217 -626 221 0
-217 626 218 0
217 626 -218 0
217 -626 -221 0
218 627 -219 0
218 -627 -220 0
-218 -627 220 0
-218 627 219 0
219 628 -111 0
219 -628 -113 0
-219 -628 113 0
-219 628 111 0
220 628 -114 0
220 -628 -117 0
-220 -628 117 0
-220 628 114 0
221 627 -222 0
221 -627 -223 0
-221 -627 223 0
-221 627 222 0
222 628 -120 0
222 -628 -127 0
-222 -628 127 0
-222 628 120 0
223 628 -131 0
223 -628 -158 0
-223 -628 158 0
-223 628 131 0
224 626 -225 0
-224 -626 0
-224 225 0
225 627 -226 0
-225 -627 0
-225 226 0
226 628 -160 0
226 -628 -164 0
-226 -628 164 0
-226 628 160 0
227 -625 144 -263 0
227 625 144 -228 0
-227 -144 0
-227 -625 263 0
-227 625 228 0
228 626 -229 0
228 -626 -260 0
-228 -626 260 0
-228 626 229 0
229 627 -230 0
229 -627 -255 0
-229 -627 255 0
-229 627 230 0
230 628 -231 0
230 -628 -246 0
-230 -628 246 0
-230 628 231 0
231 -629 -240 0
231 629 29 -232 0
-231 -629 240 0
-231 629 -29 0
-231 629 232 0
-232 -657 94 0
-232 657 233 0
232 -657 -94 0
232 657 -233 0
-233 -658 192 0
-233 658 234 0
233 -658 -192 0
233 658 -234 0
-234 659 235 0
-234 -659 238 0
234 -659 -238 0
234 659 -235 0
-235 660 236 0
-235 -660 237 0
235 -660 -237 0
235 660 -236 0
-236 630 661 0
-236 631 -661 0
236 -631 -661 0
236 -630 661 0
237 -633 -661 0
237 -632 661 0
-237 632 661 0
-237 633 -661 0
238 -660 -182 0
238 660 -239 0
-238 660 239 0
-238 -660 182 0
239 -635 -661 0
239 -634 661 0
-239 634 661 0
-239 635 -661 0
240 657 29 -241 0
240 -657 29 -99 0
-240 -29 0
-240 657 241 0
-240 -657 99 0
-241 -658 107 0
-241 658 242 0
241 -658 -107 0
241 658 -242 0
-242 -659 199 0
-242 659 243 0
242 -659 -199 0
242 659 -243 0
-243 660 245 0
-243 -660 244 0
243 -660 -244 0
243 660 -245 0
244 -634 -661 0
244 -633 661 0
-244 633 661 0
-244 634 -661 0
245 -632 -661 0
245 -631 661 0
-245 631 661 0
-245 632 -661 0
246 629 -247 0
246 -629 -251 0
-246 -629 251 0
-246 629 247 0
247 657 29 -248 0
247 -657 29 -119 0
-247 -29 0
-247 657 248 0
-247 -657 119 0
-248 -658 15 0
-248 658 249 0
248 -658 -15 0
248 658 -249 0
-249 -659 181 0
-249 659 250 0
249 -659 -181 0
249 659 -250 0
-250 -660 239 0
-250 660 237 0
250 660 -237 0
250 -660 -239 0
251 657 29 -252 0
251 -657 29 -122 0
-251 -29 0
-251 657 252 0
-251 -657 122 0
-252 -658 46 0
-252 658 253 0
252 -658 -46 0
252 658 -253 0
-253 -659 187 0
-253 659 254 0
253 -659 -187 0
253 659 -254 0
-254 660 244 0
-254 -660 200 0
254 -660 -200 0
254 660 -244 0
255 -628 -177 0
255 628 -256 0
-255 628 256 0
-255 -628 177 0
256 -629 -196 0
256 629 -257 0
-256 629 257 0
-256 -629 196 0
257 657 29 -258 0
257 -657 29 -124 0
-257 -29 0
-257 657 258 0
-257 -657 124 0
-258 -658 67 0
-258 658 259 0
258 -658 -67 0
258 658 -259 0
-259 659 238 0
-259 -659 193 0
259 -659 -193 0
259 659 -238 0
260 627 -261 0
260 -627 -262 0
-260 -627 262 0
-260 627 261 0
261 -628 -12 0
261 628 -189 0
-261 628 189 0
-261 -628 12 0
262 628 -64 0
262 -628 -83 0
-262 -628 83 0
-262 628 64 0
263 -626 -211 0
263 626 -264 0
-263 626 264 0
-263 -626 211 0
264 627 -265 0
264 -627 -266 0
-264 -627 266 0
-264 627 265 0
265 628 -92 0
265 -628 -138 0
-265 -628 138 0
-265 628 92 0
266 628 -139 0
266 -628 -141 0
-266 -628 141 0
-266 628 139 0
267 -625 144 -273 0
267 625 144 -268 0
-267 -144 0
-267 -625 273 0
-267 625 268 0
268 -626 -102 0
268 626 -269 0
-268 626 269 0
-268 -626 102 0
269 -627 -194 0
269 627 -270 0
-269 627 270 0
-269 -627 194 0
270 628 -271 0
270 -628 -272 0
-270 -628 272 0
-270 628 271 0
271 629 -240 0
271 -629 -247 0
-271 -629 247 0
-271 629 240 0
272 629 -251 0
272 -629 -257 0
-272 -629 257 0
-272 629 251 0
273 626 -115 0
273 -626 -156 0
-273 -626 156 0
-273 626 115 0
-274 -214 0
-274 275 276 0
274 214 -275 0
274 214 -276 0
275 626 -136 0
275 -626 -166 0
-275 -626 166 0
-275 626 136 0
276 626 -221 0
276 -626 -225 0
-276 -626 225 0
-276 626 221 0
277 625 144 -278 0
277 -625 144 -282 0
-277 -144 0
-277 -625 282 0
-277 625 278 0
278 -626 -207 0
278 626 -279 0
278 -626 -281 0
-278 626 279 0
-278 -626 207 281 0
-279 204 280 0
279 -204 0
279 -280 0
280 627 -262 0
280 -627 -265 0
-280 -627 265 0
-280 627 262 0
281 -627 -212 0
281 627 -266 0
-281 627 266 0
-281 -627 212 0
-282 283 285 0
282 -283 0
282 -285 0
283 626 -284 0
-283 -626 0
-283 284 0
284 627 -213 0
-284 -627 0
-284 213 0
285 626 -286 0
-285 -626 0
-285 286 0
286 627 -163 0
-286 -627 0
-286 163 0
-287 -214 289 302 0
-287 288 289 302 0
287 -302 0
287 -289 0
287 214 -288 0
288 626 -281 0
288 -626 -284 0
-288 -626 284 0
-288 626 281 0
-289 290 293 298 0
289 -290 0
289 -298 0
289 -293 0
290 625 144 -291 0
290 -625 144 -288 0
-290 -144 0
-290 -625 288 0
-290 625 291 0
291 -626 -280 0
291 626 -292 0
-291 626 292 0
-291 -626 280 0
292 627 -255 0
292 -627 -261 0
-292 -627 261 0
-292 627 255 0
293 625 144 -294 0
293 -625 144 -276 0
-293 -144 0
-293 -625 276 0
-293 625 294 0
294 -626 -218 0
294 626 -295 0
-294 626 295 0
-294 -626 218 0
295 627 -296 0
295 -627 -297 0
-295 -627 297 0
-295 627 296 0
296 -628 -195 0
296 628 -272 0
-296 628 272 0
-296 -628 195 0
297 -628 -104 0
297 628 -202 0
-297 628 202 0
-297 -628 104 0
298 625 144 -299 0
298 -625 144 -275 0
-298 -144 0
-298 -625 275 0
-298 625 299 0
299 -626 -10 0
299 626 -300 0
-299 626 300 0
-299 -626 10 0
300 -627 -176 0
300 627 -301 0
-300 627 301 0
-300 -627 176 0
301 628 -246 0
301 -628 -256 0
-301 -628 256 0
-301 628 246 0
-302 303 304 305 310 0
302 -303 0
302 -310 0
302 -305 0
302 -304 0
303 214 -273 0
-303 -214 0
-303 273 0
304 -205 214 0
-304 205 0
-304 -214 0
-305 -214 0
-305 263 306 309 0
305 214 -263 0
305 214 -309 0
305 214 -306 0
306 626 -307 0
306 -626 -308 0
-306 -626 308 0
-306 626 307 0
307 627 -220 0
307 -627 -222 0
-307 -627 222 0
-307 627 220 0
308 627 -223 0
308 -627 -226 0
-308 -627 226 0
-308 627 223 0
309 626 -308 0
-309 -626 0
-309 308 0
-310 311 312 316 318 0
310 -318 0
310 -316 0
310 -311 0
310 -312 0
311 -155 214 0
-311 155 0
-311 -214 0
312 -625 144 -314 0
312 625 144 -313 0
-312 -144 0
-312 -625 314 0
-312 625 313 0
-313 -626 206 0
-313 626 203 0
313 626 -203 0
313 -626 -206 0
314 626 -315 0
-314 -626 0
-314 315 0
315 627 -170 0
-315 -627 0
-315 170 0
316 625 144 -317 0
316 -625 144 -210 0
-316 -144 0
-316 625 317 0
-316 -625 210 0
-317 -626 264 0
-317 626 260 0
317 626 -260 0
317 -626 -264 0
318 625 144 -319 0
318 -625 144 -309 0
-318 -144 0
-318 -625 309 0
-318 625 319 0
319 -626 -307 0
319 626 -320 0
-319 626 320 0
-319 -626 307 0
320 -627 -219 0
320 627 -297 0
-320 627 297 0
-320 -627 219 0
321 214 -224 0
-321 -214 0
-321 224 0
-322 629 321 0
-322 214 -285 321 0
322 -321 0
322 -629 -214 0
322 -629 285 0
323 -322 324 0
-323 322 0
-323 -324 0
-324 227 325 537 572 0
324 -325 0
324 -537 0
324 -227 0
324 -572 0
-325 326 499 525 526 0
325 -526 0
325 -326 0
325 -525 0
325 -499 0
-326 -75 327 0
-326 327 495 497 0
326 -327 0
326 75 -497 0
326 75 -495 0
-327 -29 0
-327 328 -484 0
-327 328 425 0
327 29 -328 0
327 29 -425 484 0
328 657 -658 -402 0
328 657 658 -329 0
-328 -657 0
-328 -658 402 0
-328 658 329 0
329 659 -330 0
329 -659 -382 0
-329 -659 382 0
-329 659 330 0
330 660 -331 0
330 -660 -365 0
-330 -660 365 0
-330 660 331 0
331 661 -332 0
331 -661 -350 0
-331 -661 350 0
-331 661 332 0
332 -625 144 -348 0
332 625 144 -333 0
-332 -144 0
-332 -625 348 0
-332 625 333 0
333 626 -334 0
333 -626 -341 0
-333 -626 341 0
-333 626 334 0
334 627 -335 0
334 -627 -338 0
-334 -627 338 0
-334 627 335 0
335 628 -336 0
335 -628 -337 0
-335 -628 337 0
-335 628 336 0
336 629 -645 0
336 -629 -646 0
-336 -629 646 0
-336 629 645 0
337 629 -647 0
337 -629 -648 0
-337 -629 648 0
-337 629 647 0
338 628 -339 0
338 -628 -340 0
-338 -628 340 0
-338 628 339 0
339 629 -649 0
339 -629 -650 0
-339 -629 650 0
-339 629 649 0
340 629 -651 0
340 -629 -652 0
-340 -629 652 0
-340 629 651 0
341 627 -342 0
341 -627 -345 0
-341 -627 345 0
-341 627 342 0
342 628 -343 0
342 -628 -344 0
-342 -628 344 0
-342 628 343 0
343 629 -653 0
343 -629 -654 0
-343 -629 654 0
-343 629 653 0
344 629 -655 0
344 -629 -656 0
-344 -629 656 0
-344 629 655 0
345 628 -346 0
345 -628 -347 0
-345 -628 347 0
-345 628 346 0
346 629 -657 0
346 -629 -658 0
-346 -629 658 0
-346 629 657 0
347 629 -659 0
347 -629 -660 0
-347 -629 660 0
-347 629 659 0
348 626 -349 0
-348 -626 0
-348 349 0
349 627 628 629 -661 0
-349 661 0
-349 -629 0
-349 -627 0
-349 -628 0
350 -626 214 -358 0
350 626 214 -351 0
-350 -214 0
-350 -626 358 0
-350 626 351 0
351 627 -352 0
351 -627 -355 0
-351 -627 355 0
-351 627 352 0
352 628 -353 0
352 -628 -354 0
-352 -628 354 0
-352 628 353 0
353 629 -646 0
353 -629 -647 0
-353 -629 647 0
-353 629 646 0
354 629 -648 0
354 -629 -649 0
-354 -629 649 0
-354 629 648 0
355 628 -356 0
355 -628 -357 0
-355 -628 357 0
-355 628 356 0
356 629 -650 0
356 -629 -651 0
-356 -629 651 0
-356 629 650 0
357 629 -652 0
357 -629 -653 0
-357 -629 653 0
-357 629 652 0
358 627 -359 0
358 -627 -362 0
-358 -627 362 0
-358 627 359 0
359 628 -360 0
359 -628 -361 0
-359 -628 361 0
-359 628 360 0
360 629 -654 0
360 -629 -655 0
-360 -629 655 0
-360 629 654 0
361 629 -656 0
361 -629 -657 0
-361 -629 657 0
-361 629 656 0
362 628 -363 0
362 -628 -364 0
-362 -628 364 0
-362 628 363 0
363 629 -658 0
363 -629 -659 0
-363 -629 659 0
-363 629 658 0
364 629 -660 0
364 -629 -661 0
-364 -629 661 0
-364 629 660 0
365 661 -366 0
365 -661 -374 0
-365 -661 374 0
-365 661 366 0
366 214 -367 0
-366 -214 0
-366 367 0
367 626 -368 0
367 -626 -371 0
-367 -626 371 0
-367 626 368 0
368 627 -369 0
368 -627 -370 0
-368 -627 370 0
-368 627 369 0
369 628 -337 0
369 -628 -339 0
-369 -628 339 0
-369 628 337 0
370 628 -340 0
370 -628 -343 0
-370 -628 343 0
-370 628 340 0
371 627 -372 0
371 -627 -373 0
-371 -627 373 0
-371 627 372 0
372 628 -344 0
372 -628 -346 0
-372 -628 346 0
-372 628 344 0
373 628 -347 0
373 -628 629 -661 0
-373 -628 -629 0
-373 628 347 0
-373 -628 661 0
374 214 -375 0
-374 -214 0
-374 375 0
375 626 -376 0
375 -626 -379 0
-375 -626 379 0
-375 626 376 0
376 627 -377 0
376 -627 -378 0
-376 -627 378 0
-376 627 377 0
377 628 -354 0
377 -628 -356 0
-377 -628 356 0
-377 628 354 0
378 628 -357 0
378 -628 -360 0
-378 -628 360 0
-378 628 357 0
379 627 -380 0
379 -627 -381 0
-379 -627 381 0
-379 627 380 0
380 628 -361 0
380 -628 -363 0
-380 -628 363 0
-380 628 361 0
381 628 -629 -661 0
381 628 629 -660 0
-381 -628 0
-381 -629 661 0
-381 629 660 0
382 660 -383 0
382 -660 -393 0
-382 -660 393 0
-382 660 383 0
383 661 -384 0
383 -661 -389 0
-383 -661 389 0
-383 661 384 0
384 214 -385 0
-384 -214 0
-384 385 0
385 626 -386 0
385 -626 -387 0
-385 -626 387 0
-385 626 386 0
386 627 -338 0
386 -627 -342 0
-386 -627 342 0
-386 627 338 0
387 627 -345 0
387 -627 -388 0
-387 -627 388 0
-387 627 345 0
388 628 629 -661 0
-388 661 0
-388 -629 0
-388 -628 0
389 214 -390 0
-389 -214 0
-389 390 0
390 626 -391 0
390 -626 -392 0
-390 -626 392 0
-390 626 391 0
391 627 -355 0
391 -627 -359 0
-391 -627 359 0
-391 627 355 0
392 627 -362 0
-392 -627 0
-392 362 0
393 661 -394 0
393 -661 -398 0
-393 -661 398 0
-393 661 394 0
394 214 -395 0
-394 -214 0
-394 395 0
395 626 -396 0
395 -626 -397 0
-395 -626 397 0
-395 626 396 0
396 627 -370 0
396 -627 -372 0
-396 -627 372 0
-396 627 370 0
397 627 -373 0
-397 -627 0
-397 373 0
398 214 -399 0
-398 -214 0
-398 399 0
399 626 -400 0
399 -626 -401 0
-399 -626 401 0
-399 626 400 0
400 627 -378 0
400 -627 -380 0
-400 -627 380 0
-400 627 378 0
401 627 -381 0
-401 -627 0
-401 381 0
402 659 -403 0
402 -659 -414 0
-402 -659 414 0
-402 659 403 0
403 660 -404 0
403 -660 -409 0
-403 -660 409 0
-403 660 404 0
404 661 -405 0
404 -661 -407 0
-404 -661 407 0
-404 661 405 0
405 214 -406 0
-405 -214 0
-405 406 0
406 626 -341 0
406 -626 -349 0
-406 -626 349 0
-406 626 341 0
407 214 -408 0
-407 -214 0
-407 408 0
408 626 -358 0
-408 -626 0
-408 358 0
409 661 -410 0
409 -661 -412 0
-409 -661 412 0
-409 661 410 0
410 214 -411 0
-410 -214 0
-410 411 0
411 626 -371 0
-411 -626 0
-411 371 0
412 214 -413 0
-412 -214 0
-412 413 0
413 626 -379 0
-413 -626 0
-413 379 0
414 660 -415 0
414 -660 -420 0
-414 -660 420 0
-414 660 415 0
415 661 -416 0
415 -661 -418 0
-415 -661 418 0
-415 661 416 0
416 214 -417 0
-416 -214 0
-416 417 0
417 626 -387 0
-417 -626 0
-417 387 0
418 214 -419 0
-418 -214 0
-418 419 0
419 626 -392 0
-419 -626 0
-419 392 0
420 661 -421 0
420 -661 -423 0
-420 -661 423 0
-420 661 421 0
421 214 -422 0
-421 -214 0
-421 422 0
422 626 -397 0
-422 -626 0
-422 397 0
423 214 -424 0
-423 -214 0
-423 424 0
424 626 -401 0
-424 -626 0
-424 401 0
-425 657 658 438 0
-425 657 -658 426 0
425 -657 0
425 -658 -426 0
425 658 -438 0
-426 427 437 0
426 -427 0
426 -437 0
-427 659 428 430 0
-427 -659 429 430 0
427 -430 0
427 659 -428 0
427 -659 -429 0
428 660 -365 0
428 -660 -383 0
-428 -660 383 0
-428 660 365 0
429 660 -393 0
429 -660 -404 0
-429 -660 404 0
-429 660 393 0
430 659 -431 0
430 -659 -434 0
-430 -659 434 0
-430 659 431 0
431 660 -432 0
431 -660 -433 0
-431 -660 433 0
-431 660 432 0
432 661 -374 0
432 -661 -384 0
-432 -661 384 0
-432 661 374 0
433 661 -389 0
433 -661 -394 0
-433 -661 394 0
-433 661 389 0
434 660 -435 0
434 -660 -436 0
-434 -660 436 0
-434 660 435 0
435 661 -398 0
435 -661 -405 0
-435 -661 405 0
-435 661 398 0
436 661 -407 0
436 -661 -410 0
-436 -661 410 0
-436 661 407 0
437 659 -382 0
437 -659 -403 0
-437 -659 403 0
-437 659 382 0
-438 439 482 0
438 -439 0
438 -482 0
439 -659 -474 0
439 659 -440 0
439 -659 -480 0
-439 659 440 0
-439 -659 474 480 0
-440 441 466 0
440 -441 0
440 -466 0
441 660 -442 0
441 -660 -457 0
-441 -660 457 0
-441 660 442 0
442 661 -443 0
442 -661 -451 0
-442 -661 451 0
-442 661 443 0
443 625 144 -444 0
443 -625 144 -413 0
-443 -144 0
-443 -625 413 0
-443 625 444 0
444 -626 -376 0
444 626 -445 0
-444 626 445 0
-444 -626 376 0
445 627 -446 0
445 -627 -449 0
-445 -627 449 0
-445 627 446 0
446 628 -447 0
446 -628 -448 0
-446 -628 448 0
-446 628 447 0
447 629 -640 0
447 -629 -641 0
-447 -629 641 0
-447 629 640 0
448 629 -642 0
448 -629 -643 0
-448 -629 643 0
-448 629 642 0
449 -628 -353 0
449 628 -450 0
-449 628 450 0
-449 -628 353 0
450 629 -644 0
450 -629 -645 0
-450 -629 645 0
-450 629 644 0
451 625 144 -452 0
451 -625 144 -417 0
-451 -144 0
-451 -625 417 0
-451 625 452 0
452 -626 -386 0
452 626 -453 0
-452 626 453 0
-452 -626 386 0
453 -627 -335 0
453 627 -454 0
-453 627 454 0
-453 -627 335 0
454 628 -455 0
454 -628 -456 0
-454 -628 456 0
-454 628 455 0
455 629 -641 0
455 -629 -642 0
-455 -629 642 0
-455 629 641 0
456 629 -643 0
456 -629 -644 0
-456 -629 644 0
-456 629 643 0
457 661 -458 0
457 -661 -462 0
-457 -661 462 0
-457 661 458 0
458 625 144 -459 0
458 -625 144 -419 0
-458 -144 0
-458 -625 419 0
-458 625 459 0
459 -626 -391 0
459 626 -460 0
-459 626 460 0
-459 -626 391 0
460 -627 -352 0
460 627 -461 0
-460 627 461 0
-460 -627 352 0
461 628 -448 0
461 -628 -450 0
-461 -628 450 0
-461 628 448 0
462 625 144 -463 0
462 -625 144 -422 0
-462 -144 0
-462 -625 422 0
-462 625 463 0
463 -626 -396 0
463 626 -464 0
-463 626 464 0
-463 -626 396 0
464 -627 -369 0
464 627 -465 0
-464 627 465 0
-464 -627 369 0
465 -628 -336 0
465 628 -456 0
-465 628 456 0
-465 -628 336 0
466 660 -467 0
466 -660 -473 0
-466 -660 473 0
-466 660 467 0
467 -661 -443 0
467 661 -468 0
-467 661 468 0
-467 -661 443 0
468 625 144 -469 0
468 -625 144 -411 0
-468 -144 0
-468 -625 411 0
-468 625 469 0
469 -626 -368 0
469 626 -470 0
-469 626 470 0
-469 -626 368 0
470 -627 -465 0
470 627 -471 0
-470 627 471 0
-470 -627 465 0
471 -628 -455 0
471 628 -472 0
-471 628 472 0
-471 -628 455 0
472 629 -639 0
472 -629 -640 0
-472 -629 640 0
-472 629 639 0
473 661 -451 0
473 -661 -458 0
-473 -661 458 0
-473 661 451 0
474 660 -475 0
474 -660 -479 0
-474 -660 479 0
-474 660 475 0
475 -661 -332 0
475 661 -476 0
-475 661 476 0
-475 -661 332 0
476 625 144 -477 0
476 -625 144 -424 0
-476 -144 0
-476 -625 424 0
-476 625 477 0
477 -626 -400 0
477 626 -478 0
-477 626 478 0
-477 -626 400 0
478 -627 -377 0
478 627 -449 0
-478 627 449 0
-478 -627 377 0
479 661 -350 0
479 -661 -366 0
-479 -661 366 0
-479 661 350 0
480 -660 -331 0
480 660 -481 0
-480 660 481 0
-480 -660 331 0
481 661 -462 0
481 -661 -476 0
-481 -661 476 0
-481 661 462 0
482 -659 -330 0
482 659 -483 0
-482 659 483 0
-482 -659 330 0
483 660 -473 0
483 -660 -481 0
-483 -660 481 0
-483 660 473 0
484 -657 -658 0
484 -657 485 494 0
-484 657 0
-484 658 -494 0
-484 658 -485 0
-485 -659 486 493 0
-485 659 486 492 0
485 -486 0
485 -659 -493 0
485 659 -492 0
486 659 -487 0
486 -659 -490 0
-486 -659 490 0
-486 659 487 0
487 660 -488 0
487 -660 -489 0
-487 -660 489 0
-487 660 488 0
488 661 -412 0
488 -661 -416 0
-488 -661 416 0
-488 661 412 0
489 661 -418 0
489 -661 -421 0
-489 -661 421 0
-489 661 418 0
490 660 -491 0
-490 -660 0
-490 491 0
491 661 214 -424 0
491 -661 214 -348 0
-491 -214 0
-491 -661 348 0
-491 661 424 0
492 660 -409 0
492 -660 -415 0
-492 -660 415 0
-492 660 409 0
493 660 -420 0
-493 -660 0
-493 420 0
494 659 -414 0
-494 -659 0
-494 414 0
495 658 -496 0
495 -658 659 -490 0
-495 -658 -659 0
-495 658 496 0
-495 -658 490 0
-496 -659 402 487 0
-496 659 402 434 0
496 -402 0
496 -659 -487 0
496 659 -434 0
497 658 -498 0
497 -658 659 -493 0
-497 -658 -659 0
-497 658 498 0
-497 -658 493 0
498 659 -429 0
498 -659 -492 0
-498 -659 492 0
-498 659 429 0
-499 277 312 316 500 0
499 -500 0
499 -316 0
499 -277 0
499 -312 0
500 657 29 -501 0
500 -657 29 -495 0
-500 -29 0
-500 -657 495 0
-500 657 501 0
501 -658 -329 0
501 658 -502 0
501 -658 -524 0
-501 658 502 0
-501 -658 329 524 0
502 -659 -441 0
502 659 -503 0
502 -659 -483 0
-502 659 503 0
-502 -659 441 483 0
-503 504 522 0
503 -504 0
503 -522 0
504 660 -505 0
504 -660 -517 0
-504 -660 517 0
-504 660 505 0
505 661 -506 0
505 -661 -512 0
-505 -661 512 0
-505 661 506 0
506 625 144 -507 0
506 -625 144 -399 0
-506 -144 0
-506 625 507 0
-506 -625 399 0
-507 -626 478 0
-507 626 508 0
507 -626 -478 0
507 626 -508 0
-508 627 509 0
-508 -627 446 0
508 -627 -446 0
508 627 -509 0
509 628 -510 0
509 -628 -511 0
-509 -628 511 0
-509 628 510 0
510 629 -636 0
510 -629 -637 0
-510 -629 637 0
-510 629 636 0
511 629 -638 0
511 -629 -639 0
-511 -629 639 0
-511 629 638 0
512 625 144 -513 0
512 -625 144 -406 0
-512 -144 0
-512 625 513 0
-512 -625 406 0
-513 -626 334 0
-513 626 514 0
513 -626 -334 0
513 626 -514 0
-514 627 515 0
-514 -627 454 0
514 -627 -454 0
514 627 -515 0
515 -628 -472 0
515 628 -516 0
-515 628 516 0
-515 -628 472 0
516 629 -637 0
516 -629 -638 0
-516 -629 638 0
-516 629 637 0
517 -661 -468 0
517 661 -518 0
-517 661 518 0
-517 -661 468 0
518 625 144 -519 0
518 -625 144 -408 0
-518 -144 0
-518 -625 408 0
-518 625 519 0
519 -626 -351 0
519 626 -520 0
-519 626 520 0
-519 -626 351 0
520 -627 -461 0
520 627 -521 0
-520 627 521 0
-520 -627 461 0
521 -628 -447 0
521 628 -511 0
-521 628 511 0
-521 -628 447 0
522 -660 -467 0
522 660 -523 0
-522 660 523 0
-522 -660 467 0
523 661 -512 0
523 -661 -518 0
-523 -661 518 0
-523 661 512 0
524 -659 -431 0
524 659 -474 0
-524 659 474 0
-524 -659 431 0
-525 209 303 311 321 0
525 -321 0
525 -311 0
525 -209 0
525 -303 0
-526 -75 0
-526 527 534 0
-526 527 -536 0
526 75 -527 0
526 75 -534 536 0
-527 -658 528 0
-527 658 430 531 0
527 658 -430 0
527 -658 -528 0
527 658 -531 0
-528 486 529 0
528 -486 0
528 -529 0
-529 494 530 0
-529 -659 494 0
529 -494 0
529 659 -530 0
530 660 -489 0
530 -660 -491 0
-530 -660 491 0
-530 660 489 0
-531 -659 437 533 0
-531 659 437 532 0
531 -437 0
531 -659 -533 0
531 659 -532 0
532 660 -433 0
532 -660 -435 0
-532 -660 435 0
-532 660 433 0
533 660 -436 0
533 -660 -488 0
-533 -660 488 0
-533 660 436 0
-534 658 -659 532 0
-534 658 659 535 0
534 -658 0
534 -659 -532 0
534 659 -535 0
535 -660 -432 0
535 660 -479 0
-535 660 479 0
-535 -660 432 0
536 -658 659 533 0
536 -658 -659 530 0
-536 658 0
-536 -659 -530 0
-536 659 -533 0
537 657 29 -539 0
537 -657 29 -538 0
-537 -29 0
-537 -657 538 0
-537 657 539 0
538 -658 -485 0
538 658 -427 0
-538 658 427 0
-538 -658 485 0
539 -658 -439 0
539 658 -540 0
-539 658 540 0
-539 -658 439 0
540 -659 -504 0
540 659 -541 0
540 -659 -570 0
-540 659 541 0
-540 -659 504 570 0
541 -660 -561 0
541 660 -542 0
541 -660 -569 0
-541 660 542 0
-541 -660 561 569 0
-542 661 543 555 0
-542 -661 543 549 0
542 -543 0
542 661 -555 0
542 -661 -549 0
543 625 144 -544 0
543 -625 144 -375 0
-543 -144 0
-543 625 544 0
-543 -625 375 0
-544 -626 445 0
-544 626 545 0
544 -626 -445 0
544 626 -545 0
-545 -627 509 0
-545 627 546 0
545 -627 -509 0
545 627 -546 0
-546 -628 547 0
-546 628 548 0
546 -628 -547 0
546 628 -548 0
547 629 -634 0
547 -629 -635 0
-547 -629 635 0
-547 629 634 0
-548 -629 633 0
-548 629 632 0
548 629 -632 0
548 -629 -633 0
549 625 144 -550 0
549 -625 144 -385 0
-549 -144 0
-549 625 550 0
-549 -625 385 0
-550 -626 453 0
-550 626 551 0
550 -626 -453 0
550 626 -551 0
-551 -627 515 0
-551 627 552 0
551 -627 -515 0
551 627 -552 0
-552 628 554 0
-552 -628 553 0
552 -628 -553 0
552 628 -554 0
553 629 -635 0
553 -629 -636 0
-553 -629 636 0
-553 629 635 0
554 629 -633 0
554 -629 -634 0
-554 -629 634 0
-554 629 633 0
555 625 144 -556 0
555 -625 144 -367 0
-555 -144 0
-555 625 556 0
-555 -625 367 0
-556 -626 470 0
-556 626 557 0
556 -626 -470 0
556 626 -557 0
-557 627 558 0
-557 -627 560 0
557 -627 -560 0
557 627 -558 0
-558 628 559 0
-558 -628 554 0
558 -628 -554 0
558 628 -559 0
559 629 -631 0
559 -629 -632 0
-559 -629 632 0
-559 629 631 0
560 -628 -516 0
560 628 -553 0
-560 628 553 0
-560 -628 516 0
561 661 -562 0
561 -661 -566 0
-561 -661 566 0
-561 661 562 0
562 625 144 -563 0
562 -625 144 -390 0
-562 -144 0
-562 625 563 0
-562 -625 390 0
-563 -626 460 0
-563 626 564 0
563 -626 -460 0
563 626 -564 0
-564 627 565 0
-564 -627 521 0
564 -627 -521 0
564 627 -565 0
565 -628 -510 0
565 628 -547 0
-565 628 547 0
-565 -628 510 0
566 625 144 -567 0
566 -625 144 -395 0
-566 -144 0
-566 625 567 0
-566 -625 395 0
-567 -626 464 0
-567 626 568 0
567 -626 -464 0
567 626 -568 0
-568 627 560 0
-568 -627 471 0
568 -627 -471 0
568 627 -560 0
569 661 -549 0
569 -661 -562 0
-569 -661 562 0
-569 661 549 0
570 -660 -523 0
570 660 -571 0
-570 660 571 0
-570 -660 523 0
571 -661 -506 0
571 661 -566 0
-571 661 566 0
-571 -661 506 0
-572 -29 0
-572 573 577 0
-572 -576 577 0
572 29 -577 0
572 29 -573 576 0
-573 657 -658 575 0
-573 657 658 574 0
573 -657 0
573 -658 -575 0
573 658 -574 0
574 -659 -466 0
574 659 -570 0
-574 659 570 0
-574 -659 466 0
575 -659 -428 0
575 659 -480 0
-575 659 480 0
-575 -659 428 0
576 -657 497 0
-576 657 0
-576 -497 0
-577 658 578 0
-577 -658 583 0
577 -658 -583 0
577 658 -578 0
-578 -657 531 0
-578 657 579 0
578 657 -579 0
578 -657 -531 0
-579 659 580 0
-579 -659 522 582 0
579 -659 -522 0
579 659 -580 0
579 -659 -582 0
-580 571 581 0
-580 660 581 0
580 -581 0
580 -660 -571 0
-581 -660 505 0
-581 660 561 569 0
581 -660 -505 0
581 660 -569 0
581 660 -561 0
582 -660 -442 0
582 660 -517 0
-582 660 517 0
-582 -660 442 0
-583 -657 529 0
-583 657 482 584 0
583 657 -482 0
583 -657 -529 0
583 657 -584 0
584 -659 -535 0
584 659 -585 0
-584 659 585 0
-584 -659 535 0
585 660 -457 0
585 -660 -475 0
-585 -660 475 0
-585 660 457 0
586 -626 5 0
-586 626 0
-586 -5 0
587 -321 324 0
587 -626 324 0
-587 -324 0
-587 626 321 0
-588 589 590 591 595 0
-588 -589 -590 591 595 0
588 -591 0
588 589 -590 0
588 -595 0
588 -589 590 0
589 -627 5 0
-589 627 0
-589 -5 0
590 -321 324 0
590 -627 324 0
-590 -324 0
-590 627 321 0
591 -592 594 0
-591 592 0
-591 -594 0
592 5 321 -593 0
-592 -5 0
-592 593 0
-592 -321 0
-593 628 321 0
-593 214 -283 321 0
593 -321 0
593 -628 -214 0
593 -628 283 0
594 324 -593 0
-594 -324 0
-594 593 0
-595 -587 594 0
-595 586 -592 0
-595 -587 -592 0
-595 586 594 0
595 592 -594 0
595 -586 587 0
596 -625 5 0
-596 625 0
-596 -5 0
597 -321 324 0
597 -625 324 0
-597 -324 0
-597 625 321 0
-662 0
2 0

